Version identifier: 12.10.0.0 | 2019-11-26 | 843d4de
CPXPARAM_WorkMem                                 28672
Tried aggregator 2 times.
MIP Presolve modified 8 coefficients.
Aggregator did 20 substitutions.
Reduced MIP has 73 rows, 90 columns, and 351 nonzeros.
Reduced MIP has 90 binaries, 0 generals, 0 SOSs, and 0 indicators.
Presolve time = 0,00 sec. (0,37 ticks)
Found incumbent of value 342,000000 after 0,00 sec. (0,62 ticks)
Probing time = 0,00 sec. (0,11 ticks)
Tried aggregator 1 time.
Detecting symmetries...
MIP Presolve eliminated 12 rows and 0 columns.
MIP Presolve added 24 rows and 0 columns.
Reduced MIP has 85 rows, 90 columns, and 363 nonzeros.
Reduced MIP has 90 binaries, 0 generals, 0 SOSs, and 0 indicators.
Presolve time = 0,00 sec. (0,38 ticks)
Probing time = 0,00 sec. (0,11 ticks)
Clique table members: 241.
MIP emphasis: balance optimality and feasibility.
MIP search method: dynamic search.
Parallel mode: deterministic, using up to 16 threads.
Root relaxation solution time = 0,00 sec. (0,23 ticks)

        Nodes                                         Cuts/
   Node  Left     Objective  IInf  Best Integer    Best Bound    ItCnt     Gap

*     0+    0                          342,0000        0,0000           100,00%
*     0+    0                          253,0000        0,0000           100,00%
*     0+    0                          225,0000        0,0000           100,00%
      0     0      114,0000    50      225,0000      114,0000       45   49,33%
*     0+    0                          216,0000      114,0000            47,22%
      0     0      114,0000    50      216,0000      Cuts: 45       60   47,22%
*     0+    0                          212,0000      114,0000            46,23%
      0     0      114,3411    50      212,0000     Cuts: 117       88   46,07%
      0     0      115,9829    50      212,0000     Cuts: 118      131   45,29%
      0     0      116,2749    50      212,0000      Cuts: 85      149   45,15%
      0     0      116,8129    50      212,0000      Cuts: 37      158   44,90%
*     0+    0                          206,0000      116,8129            43,29%
Detecting symmetries...
      0     0      116,9031    50      206,0000       Cuts: 3      171   43,25%
      0     0      116,9437    50      206,0000   ZeroHalf: 1      173   43,23%
      0     0      117,0269    50      206,0000   ZeroHalf: 2      180   43,19%
*     0+    0                          185,0000      117,0269            36,74%
      0     0      117,4808    50      185,0000      Cuts: 50      198   36,50%
      0     0      117,5328    50      185,0000   ZeroHalf: 2      204   36,47%
      0     0      117,5931    50      185,0000       Cuts: 8      216   36,44%
      0     0      117,6530    50      185,0000      Cuts: 28      229   36,40%
      0     0      117,8036    50      185,0000       Cuts: 5      243   36,32%
      0     0      117,8105    50      185,0000   ZeroHalf: 6      246   36,32%
      0     0        cutoff            185,0000      185,0000      246    0,00%
Elapsed time = 0,10 sec. (30,68 ticks, tree = 0,01 MB, solutions = 7)

Clique cuts applied:  16
Cover cuts applied:  14
Mixed integer rounding cuts applied:  7
Zero-half cuts applied:  12
Gomory fractional cuts applied:  5

Root node processing (before b&c):
  Real time             =    0,10 sec. (30,69 ticks)
Parallel b&c, 16 threads:
  Real time             =    0,00 sec. (0,00 ticks)
  Sync time (average)   =    0,00 sec.
  Wait time (average)   =    0,00 sec.
                          ------------
Total (root+branch&cut) =    0,10 sec. (30,69 ticks)
